50, 7079
399, 308
510, 1240
399, 308
342, 264
306, 744
570, 440
204, 496
255, 620
399, 308
285, 220
570, 440
357, 868
57, 44
153, 372
513, 396
102, 248
153, 372
57, 44
204, 496
102, 248
57, 44
456, 352
102, 248
102, 248
51, 124
153, 372
357, 868
255, 620
342, 264
204, 496
255, 620
408, 992
459, 1116
306, 744
228, 176
408, 992
285, 220
51, 124
399, 308
255, 620
306, 744
513, 396
255, 620
228, 176
204, 496
114, 88
357, 868
399, 308
570, 440
285, 220
